(declare-fun var76923 () (_ BitVec 64))
(declare-fun ARGNAME_i1_NAMEEND_DIM () (_ BitVec 64))
(declare-fun ARGNAME_expand1_NAMEEND_LEN () (_ BitVec 64))
(declare-fun var76924 () (_ BitVec 64))
(declare-fun ARGNAME_unroll_dim_NAMEEND () (_ BitVec 64))
(declare-fun var76925 () (_ BitVec 64))
(declare-fun temp270_1 () (_ BitVec 64))
(declare-fun var76926 () (_ BitVec 64))
(declare-fun var76927 () (_ BitVec 64))
(declare-fun temp270_2 () (_ BitVec 64))
(declare-fun temp270_3 () (_ BitVec 64))
(declare-fun var76928 () (_ BitVec 64))
(declare-fun k!0 () (_ BitVec 64))
(declare-fun k!1 () Bool)
(declare-fun var269666 () (_ BitVec 64))
(declare-fun temp270_4 () (_ BitVec 64))
(declare-fun var269695 () (_ BitVec 64))
(declare-fun temp270_5 () (_ BitVec 64))
(declare-fun temp270_7 () (_ BitVec 64))
(declare-fun temp270_6 () (_ BitVec 64))
(declare-fun temp270_9 () (_ BitVec 64))
(declare-fun temp270_8 () (_ BitVec 64))
(declare-fun temp270_10 () (_ BitVec 64))
(declare-fun var862370 () (_ BitVec 64))
(declare-fun var927917 () (_ BitVec 64))
(declare-fun temp270_11 () (_ BitVec 64))
(declare-fun var1713223 () (_ BitVec 64))
(declare-fun var2104674 () (_ BitVec 64))
(declare-fun temp270_12 () (_ BitVec 64))
(declare-fun var2104703 () (_ BitVec 64))
(declare-fun temp270_13 () (_ BitVec 64))
(declare-fun temp270_15 () (_ BitVec 64))
(declare-fun temp270_14 () (_ BitVec 64))
(declare-fun temp270_17 () (_ BitVec 64))
(declare-fun temp270_16 () (_ BitVec 64))
(declare-fun temp270_18 () (_ BitVec 64))
(declare-fun var2697378 () (_ BitVec 64))
(declare-fun var2762925 () (_ BitVec 64))
(declare-fun temp270_19 () (_ BitVec 64))
(declare-fun var3548231 () (_ BitVec 64))
(declare-fun var3939682 () (_ BitVec 64))
(declare-fun temp270_20 () (_ BitVec 64))
(declare-fun var3939711 () (_ BitVec 64))
(declare-fun temp270_21 () (_ BitVec 64))
(declare-fun temp270_23 () (_ BitVec 64))
(declare-fun temp270_22 () (_ BitVec 64))
(declare-fun temp270_25 () (_ BitVec 64))
(declare-fun temp270_24 () (_ BitVec 64))
(declare-fun temp270_26 () (_ BitVec 64))
(declare-fun var4532386 () (_ BitVec 64))
(declare-fun var4597933 () (_ BitVec 64))
(declare-fun temp270_27 () (_ BitVec 64))
(declare-fun var5383239 () (_ BitVec 64))
(declare-fun var5774690 () (_ BitVec 64))
(declare-fun temp270_28 () (_ BitVec 64))
(declare-fun var5774719 () (_ BitVec 64))
(declare-fun temp270_29 () (_ BitVec 64))
(declare-fun temp270_31 () (_ BitVec 64))
(declare-fun temp270_30 () (_ BitVec 64))
(declare-fun temp270_33 () (_ BitVec 64))
(declare-fun temp270_32 () (_ BitVec 64))
(declare-fun temp270_34 () (_ BitVec 64))
(declare-fun var6367394 () (_ BitVec 64))
(declare-fun var6432941 () (_ BitVec 64))
(declare-fun temp270_35 () (_ BitVec 64))
(declare-fun var7218247 () (_ BitVec 64))
(declare-fun var8461836 () (_ BitVec 64))
(declare-fun temp270_37 () (_ BitVec 64))
(declare-fun temp270_36 () (_ BitVec 64))
(declare-fun var8524787 () (_ BitVec 64))
(declare-fun var8524788 () (_ BitVec 64))
(declare-fun temp270_38 () (_ BitVec 64))
(declare-fun temp270_39 () (_ BitVec 64))
(declare-fun var8594453 () (_ BitVec 64))
(declare-fun var8660000 () (_ BitVec 64))
(declare-fun var8461854 () (_ BitVec 64))
(declare-fun temp270_40 () (_ BitVec 64))
(declare-fun var77094 () (_ BitVec 64))
(declare-fun temp270_41 () (_ BitVec 64))
(declare-fun var77135 () (_ BitVec 64))
(declare-fun var77169 () (_ BitVec 64))
(declare-fun var77223 () (_ BitVec 64))
(declare-fun temp270_42 () (_ BitVec 64))
(declare-fun var11608541 () (_ BitVec 64))
(declare-fun temp270_43 () (_ BitVec 64))
(declare-fun ARGNAME_i1_NAMEEND_NUMELEMENT () (_ BitVec 64))
(declare-fun var77268 () (_ BitVec 64))
(declare-fun temp270_44 () (_ BitVec 64))
(declare-fun temp270_45 () (_ BitVec 64))
(declare-fun ARGNAME_i2_NAMEEND_NUMELEMENT () (_ BitVec 64))
(declare-fun var77272 () (_ BitVec 64))
(declare-fun temp270_46 () (_ BitVec 64))
(declare-fun temp270_47 () (_ BitVec 64))
(declare-fun ARGNAME_i3_NAMEEND_NUMELEMENT () (_ BitVec 64))
(declare-fun var77276 () (_ BitVec 64))
(declare-fun temp270_48 () (_ BitVec 64))
(declare-fun temp270_50 () (_ BitVec 64))
(declare-fun temp270_49 () (_ BitVec 64))
(declare-fun temp270_51 () (_ BitVec 64))
(declare-fun var14885909 () (_ BitVec 64))
(declare-fun var14951456 () (_ BitVec 64))
(declare-fun var14753310 () (_ BitVec 64))
(declare-fun temp270_52 () (_ BitVec 64))
(declare-fun var15347757 () (_ BitVec 64))
(declare-fun temp270_53 () (_ BitVec 64))
(declare-fun var15413293 () (_ BitVec 64))
(declare-fun temp270_54 () (_ BitVec 64))
(declare-fun var15937581 () (_ BitVec 64))
(declare-fun temp270_56 () (_ BitVec 64))
(declare-fun temp270_55 () (_ BitVec 64))
(declare-fun temp270_57 () (_ BitVec 64))
(declare-fun var17049762 () (_ BitVec 64))
(declare-fun temp270_58 () (_ BitVec 64))
(declare-fun var17704007 () (_ BitVec 64))
(declare-fun temp270_60 () (_ BitVec 64))
(declare-fun temp270_59 () (_ BitVec 64))
(declare-fun temp270_61 () (_ BitVec 64))
(declare-fun var18686997 () (_ BitVec 64))
(declare-fun var18752544 () (_ BitVec 64))
(declare-fun temp270_62 () (_ BitVec 64))
(declare-fun var16258794 () (_ BitVec 64))
(declare-fun var16258764 () (_ BitVec 64))
(declare-fun var16258763 () (_ BitVec 64))
(declare-fun temp270_64 () (_ BitVec 64))
(declare-fun temp270_63 () (_ BitVec 64))
(declare-fun temp270_66 () (_ BitVec 64))
(declare-fun temp270_65 () (_ BitVec 64))
(declare-fun temp270_67 () (_ BitVec 64))
(declare-fun var16259272 () (_ BitVec 64))
(declare-fun temp270_68 () (_ BitVec 64))
(declare-fun var16259206 () (_ BitVec 64))
(declare-fun var16259205 () (_ BitVec 64))
(declare-fun var16259284 () (_ BitVec 64))
(declare-fun var16259320 () (_ BitVec 64))
(declare-fun temp270_69 () (_ BitVec 64))
(declare-fun var16259304 () (_ BitVec 64))
(declare-fun var16259303 () (_ BitVec 64))
(declare-fun var16259338 () (_ BitVec 64))
(declare-fun temp270_70 () (_ BitVec 64))
(declare-fun var16259339 () (_ BitVec 64))
(declare-fun temp270_72 () (_ BitVec 64))
(declare-fun temp270_71 () (_ BitVec 64))
(declare-fun temp270_74 () (_ BitVec 64))
(declare-fun temp270_73 () (_ BitVec 64))
(assert (= var76923 (bvadd ARGNAME_expand1_NAMEEND_LEN ARGNAME_i1_NAMEEND_DIM)))
(assert (= var76924
   (ite (bvsle var76923 ARGNAME_unroll_dim_NAMEEND)
        #x0000000000000001
        #x0000000000000000)))
(assert (= var76925 var76924))
(assert (= temp270_1 #x000000000000003f))
(assert (= var76926 (bvlshr ARGNAME_unroll_dim_NAMEEND temp270_1)))
(assert (= var76927 (bvor var76926 var76925)))
(assert (= temp270_2 #x0000000000000000))
(assert (= var76928 (ite (= var76927 temp270_2) #x0000000000000001 #x0000000000000000)))
(assert (= temp270_3 #x0000000000000001))
(assert (= var76928 temp270_3))
(assert (= var269666 var76923))
(assert (= temp270_4 #x0000000000000040))
(assert (= var269695
   (ite (bvsgt var269666 temp270_4) #x0000000000000001 #x0000000000000000)))
(assert (= temp270_5 #x0000000000000000))
(assert (= var269695 temp270_5))
(assert (= temp270_7 #x0000000000000000))
(assert (= temp270_6 temp270_7))
(assert (= temp270_9 #x0000000000000000))
(assert (= temp270_8 temp270_9))
(assert (= temp270_10 #x0000000000000000))
(assert (= var862370 temp270_10))
(assert (= var927917 var862370))
(assert (= temp270_11 #x0000000000000001))
(assert (= var1713223 temp270_11))
(assert (= var2104674 var76923))
(assert (= temp270_12 #x0000000000000040))
(assert (= var2104703
   (ite (bvsgt var2104674 temp270_12) #x0000000000000001 #x0000000000000000)))
(assert (= temp270_13 #x0000000000000000))
(assert (= var2104703 temp270_13))
(assert (= temp270_15 #x0000000000000000))
(assert (= temp270_14 temp270_15))
(assert (= temp270_17 #x0000000000000000))
(assert (= temp270_16 temp270_17))
(assert (= temp270_18 #x0000000000000000))
(assert (= var2697378 temp270_18))
(assert (= var2762925 var2697378))
(assert (= temp270_19 #x0000000000000001))
(assert (= var3548231 temp270_19))
(assert (= var3939682 var76923))
(assert (= temp270_20 #x0000000000000040))
(assert (= var3939711
   (ite (bvsgt var3939682 temp270_20) #x0000000000000001 #x0000000000000000)))
(assert (= temp270_21 #x0000000000000000))
(assert (= var3939711 temp270_21))
(assert (= temp270_23 #x0000000000000000))
(assert (= temp270_22 temp270_23))
(assert (= temp270_25 #x0000000000000000))
(assert (= temp270_24 temp270_25))
(assert (= temp270_26 #x0000000000000000))
(assert (= var4532386 temp270_26))
(assert (= var4597933 var4532386))
(assert (= temp270_27 #x0000000000000001))
(assert (= var5383239 temp270_27))
(assert (= var5774690 var76923))
(assert (= temp270_28 #x0000000000000040))
(assert (= var5774719
   (ite (bvsgt var5774690 temp270_28) #x0000000000000001 #x0000000000000000)))
(assert (= temp270_29 #x0000000000000000))
(assert (= var5774719 temp270_29))
(assert (= temp270_31 #x0000000000000000))
(assert (= temp270_30 temp270_31))
(assert (= temp270_33 #x0000000000000000))
(assert (= temp270_32 temp270_33))
(assert (= temp270_34 #x0000000000000000))
(assert (= var6367394 temp270_34))
(assert (= var6432941 var6367394))
(assert (= temp270_35 #x0000000000000001))
(assert (= var7218247 temp270_35))
(assert (= var8461836 var76923))
(assert (= temp270_37 #x0000000000000000))
(assert (= temp270_36 temp270_37))
(assert (= var8524787 var8461836))
(assert (= var8524788
   (ite (bvslt temp270_36 var8524787) #x0000000000000001 #x0000000000000000)))
(assert (= temp270_38 (ite (= var8524788 #x0000000000000001) var8461836 temp270_36)))
(assert (= temp270_39 #x0000000000000000))
(assert (= var8594453 temp270_39))
(assert (= var8660000 var8594453))
(assert (= var8461854 var8660000))
(assert (= temp270_40 #xffffffffffffffff))
(assert (= var77094 temp270_40))
(assert (= temp270_41 #x0000000000000000))
(assert (= var77135 temp270_41))
(assert (= var77169 var77135))
(assert (= var77223 var77169))
(assert (= temp270_42 #x0000000000000001))
(assert (= var11608541 temp270_42))
(assert (= temp270_43 #x0000000000000000))
(assert (= var77268
   (ite (= ARGNAME_i1_NAMEEND_NUMELEMENT temp270_43)
        #x0000000000000001
        #x0000000000000000)))
(assert (= temp270_44 #x0000000000000000))
(assert (= var77268 temp270_44))
(assert (= temp270_45 #x0000000000000000))
(assert (= var77272
   (ite (= ARGNAME_i2_NAMEEND_NUMELEMENT temp270_45)
        #x0000000000000001
        #x0000000000000000)))
(assert (= temp270_46 #x0000000000000000))
(assert (= var77272 temp270_46))
(assert (= temp270_47 #x0000000000000000))
(assert (= var77276
   (ite (= ARGNAME_i3_NAMEEND_NUMELEMENT temp270_47)
        #x0000000000000001
        #x0000000000000000)))
(assert (= temp270_48 #x0000000000000000))
(assert (= var77276 temp270_48))
(assert (= temp270_50 #x0000000000000000))
(assert (= temp270_49 temp270_50))
(assert (= temp270_51 #x0000000000000000))
(assert (= var14885909 temp270_51))
(assert (= var14951456 var14885909))
(assert (= var14753310 var14951456))
(assert (= temp270_52 #x0000000000000001))
(assert (= var15347757 temp270_52))
(assert (= temp270_53 #x0000000000000001))
(assert (= var15413293 temp270_53))
(assert (= temp270_54 #x0000000000000001))
(assert (= var15937581 temp270_54))
(assert (= temp270_56 #x0000000000000000))
(assert (= temp270_55 temp270_56))
(assert (= temp270_57 #x0000000000000000))
(assert (= var17049762 temp270_57))
(assert (= temp270_58 #x0000000000000001))
(assert (= var17704007 temp270_58))
(assert (= temp270_60 #x0000000000000000))
(assert (= temp270_59 temp270_60))
(assert (= temp270_61 #x0000000000000000))
(assert (= var18686997 temp270_61))
(assert (= var18752544 var18686997))
(assert (= temp270_62 #x0000000000000001))
(assert (= var16258794 temp270_62))
(assert (= var16258764 var16258794))
(assert (= var16258763 var16258764))
(assert (= temp270_64 #x0000000000000001))
(assert (= temp270_63 temp270_64))
(assert (= temp270_66 #xffffffffffffffff))
(assert (= temp270_65 temp270_66))
(assert (= temp270_67 #x0000000000000000))
(assert (= var16259272 temp270_67))
(assert (= temp270_68 #x0000000000000001))
(assert (= var16259206 (bvadd var16259272 temp270_68)))
(assert (= var16259205 var16259206))
(assert (= var16259284 var16259205))
(assert (= var16259320 var16259284))
(assert (= temp270_69 #x0000000000000001))
(assert (= var16259304 (bvadd var16259320 temp270_69)))
(assert (= var16259303 var16259304))
(assert (= var16259338 var16259303))
(assert (= temp270_70 #x0000000000000001))
(assert (= var16259339 (bvadd var16259338 temp270_70)))
(assert (= temp270_72 #x0000000000000003))
(assert (= temp270_71 temp270_72))
(assert (= temp270_74 #x0000000000000003))
(assert (= temp270_73 temp270_74))
(model-add var76923
           ()
           (_ BitVec 64)
           (bvadd ARGNAME_expand1_NAMEEND_LEN ARGNAME_i1_NAMEEND_DIM))
(model-add var76924
           ()
           (_ BitVec 64)
           (ite (bvsle (bvadd ARGNAME_expand1_NAMEEND_LEN
                              ARGNAME_i1_NAMEEND_DIM)
                       ARGNAME_unroll_dim_NAMEEND)
                #x0000000000000001
                #x0000000000000000))
(model-add var76925
           ()
           (_ BitVec 64)
           (ite (bvsle (bvadd ARGNAME_expand1_NAMEEND_LEN
                              ARGNAME_i1_NAMEEND_DIM)
                       ARGNAME_unroll_dim_NAMEEND)
                #x0000000000000001
                #x0000000000000000))
(model-add temp270_1 () (_ BitVec 64) #x000000000000003f)
(model-add var76926
           ()
           (_ BitVec 64)
           (concat #b000000000000000000000000000000000000000000000000000000000000000
                   ((_ extract 63 63) ARGNAME_unroll_dim_NAMEEND)))
(model-add var76927
           ()
           (_ BitVec 64)
           (bvor (concat #b000000000000000000000000000000000000000000000000000000000000000
                         ((_ extract 63 63) ARGNAME_unroll_dim_NAMEEND))
                 (ite (bvsle (bvadd ARGNAME_expand1_NAMEEND_LEN
                                    ARGNAME_i1_NAMEEND_DIM)
                             ARGNAME_unroll_dim_NAMEEND)
                      #x0000000000000001
                      #x0000000000000000)))
(model-add temp270_2 () (_ BitVec 64) #x0000000000000000)
(model-add temp270_3 () (_ BitVec 64) #x0000000000000001)
(model-add var76928 () (_ BitVec 64) #x0000000000000001)
(model-del k!0)
(model-add ARGNAME_expand1_NAMEEND_LEN
           ()
           (_ BitVec 64)
           (bvsub k!0 ARGNAME_i1_NAMEEND_DIM))
(model-del k!1)
(model-add k!0
           ()
           (_ BitVec 64)
           (ite (or k!1 (= ARGNAME_unroll_dim_NAMEEND #x7fffffffffffffff))
                ARGNAME_unroll_dim_NAMEEND
                (bvadd ARGNAME_unroll_dim_NAMEEND #x0000000000000001)))




